BatteryLevel=[40,88,95,53,39,30,8];
Brightness =888;
EConsumption=59;
HumidityLevel=24;
minBrightness=300;
MinTankWater=100;
Month=8;
NormalHumidity=80;
opBrightness=700;
OpConsumption=100;
OpTankWater=300;
PowerFailure=0;
Rain=0;
TankLevel=150;
Temperature=32;
WaterConsumption=93;
IN_open=0;
IN_close=1;